(declare-const x0 Bool)
(declare-const x1 Bool)
(declare-const x2 Bool)
(declare-const x3 Bool)
(declare-const x4 Bool)
(declare-const x5 Bool)
(declare-const x6 Bool)
(declare-const x7 Bool)
(declare-const x8 Bool)
(declare-const x9 Bool)
(declare-const x10 Bool)
(declare-const x11 Bool)
(declare-const x12 Bool)
(declare-const x13 Bool)
(declare-const x14 Bool)
(declare-const x15 Bool)
(declare-const x16 Bool)
(declare-const x17 Bool)
(assert (or (and (= false x12) (or true (or x0 (and (= x8 false) (= x8 false))))) (= x16 (= false (and x4 true)))))
(assert true)
(assert (= false false))
(assert (or x12 x7))
(assert (or x4 false))
(assert (= (and x12 x9) (or (= false x2) true)))
(assert (or (= (= (and true x0) true) (= (and x17 x2) false)) true))
(assert (or (and true (or false true)) (and (= false (or true (and x9 x6))) (and x1 x12))))
(assert (and x17 false))
(assert (or (= true x6) (or (or (or x3 x14) (and true (and false x12))) true)))
(check-sat)
